
Gurobi 9.5.1 (linux64) logging started Sat Jun 25 14:52:52 2022

Set parameter LogFile to value "../results/logs/log_flickrEdges_4_250_2022_06_25_12_51.log"
Gurobi Optimizer version 9.5.1 build v9.5.1rc2 (linux64)
Thread count: 8 physical cores, 8 logical processors, using up to 8 threads
Optimize a model with 5 rows, 211876 columns and 574 nonzeros
Model fingerprint: 0xad2aa8d1
Variable types: 0 continuous, 211876 integer (211876 binary)
Coefficient statistics:
  Matrix range     [1e+00, 4e+00]
  Objective range  [1e+00, 1e+00]
  Bounds range     [1e+00, 1e+00]
  RHS range        [1e+00, 2e+02]
Found heuristic solution: objective 105386.00000
Presolve removed 5 rows and 211876 columns
Presolve time: 0.02s
Presolve: All rows and columns removed

Explored 0 nodes (0 simplex iterations) in 0.04 seconds (0.03 work units)
Thread count was 1 (of 8 available processors)

Solution count 2: 105388 105386 

Optimal solution found (tolerance 0.00e+00)
Best objective 1.053880000000e+05, best bound 1.053880000000e+05, gap 0.0000%
